15 40
25
11 2 4 16
2 3 0 11
7 10 6 30
4 8 11 2
9 5 0 0
2 7 4 33
4 1 11 1
6 1 9 0
5 4 8 26
3 8 8 18
1 3 5 30
5 5 4 5
1 3 4 30
4 12 4 18
2 6 2 8
2 4 13 26
11 4 4 12
2 10 13 30
2 3 9 1
11 2 4 10
4 3 0 5
4 26 0 14
4 8 11 18
2 3 0 8
2 6 9 4
